c Sudoku solution
p cnf 729 0
269 0
283 0
292 0
325 0
332 0
354 0
367 0
396 0
539 0
552 0
586 0
626 0
657 0
668 0
682 0
695 0
763 0
829 0
834 0
898 0
922 0
412 0
931 0
633 0
123 0
343 0
453 0
945 0
959 0
918 0
813 0
727 0
847 0
984 0
744 0
862 0
966 0
851 0
758 0
772 0
885 0
876 0
142 0
541 0
649 0
446 0
248 0
138 0
161 0
993 0
977 0
573 0
528 0
187 0
671 0
421 0
614 0
224 0
275 0
155 0
256 0
116 0
237 0
211 0
319 0
715 0
736 0
517 0
435 0
464 0
565 0
594 0
497 0
378 0
381 0
174 0
199 0
479 0
488 0
789 0
791 0
